This is Ipopt version 3.12.4, running with linear solver mumps.
NOTE: Other linear solvers might be more efficient (see Ipopt documentation).

Number of nonzeros in equality constraint Jacobian...:        0
Number of nonzeros in inequality constraint Jacobian.:        0
Number of nonzeros in Lagrangian Hessian.............:        0

Total number of variables............................:        3
                     variables with only lower bounds:        0
                variables with lower and upper bounds:        0
                     variables with only upper bounds:        0
Total number of equality constraints.................:        0
Total number of inequality constraints...............:        0
        inequality constraints with only lower bounds:        0
   inequality constraints with lower and upper bounds:        0
        inequality constraints with only upper bounds:        0

iter    objective    inf_pr   inf_du lg(mu)  ||d||  lg(rg) alpha_du alpha_pr  ls
   0  1.2878901e-07 0.00e+00 1.79e-08   0.0 0.00e+00    -  0.00e+00 0.00e+00   0
   1  1.2878901e-07 0.00e+00 1.79e-08 -11.0 1.79e-08    -  1.00e+00 1.00e+00f  1
   2  6.9507661e-08 0.00e+00 6.33e-09 -11.0 3.53e+00    -  1.00e+00 1.00e+00f  1

Number of Iterations....: 2

                                   (scaled)                 (unscaled)
Objective...............:   6.9507661213265840e-08    6.9507661213265840e-08
Dual infeasibility......:   6.3271737949675541e-09    6.3271737949675541e-09
Constraint violation....:   0.0000000000000000e+00    0.0000000000000000e+00
Complementarity.........:   0.0000000000000000e+00    0.0000000000000000e+00
Overall NLP error.......:   6.3271737949675541e-09    6.3271737949675541e-09


Number of objective function evaluations             = 3
Number of objective gradient evaluations             = 3
Number of equality constraint evaluations            = 0
Number of inequality constraint evaluations          = 0
Number of equality constraint Jacobian evaluations   = 0
Number of inequality constraint Jacobian evaluations = 0
Number of Lagrangian Hessian evaluations             = 0
Total CPU secs in IPOPT (w/o function evaluations)   =      0.012
Total CPU secs in NLP function evaluations           =      0.012

EXIT: Optimal Solution Found.
